(set-logic QF_LRA)
(declare-fun X0 () Real )
(declare-fun Y0 () Real )
(declare-fun X1 () Real )
(declare-fun Y1 () Real )
(declare-fun X2 () Real )
(declare-fun Y2 () Real )
(declare-fun X3 () Real )
(declare-fun Y3 () Real )
(declare-fun X4 () Real )
(declare-fun Y4 () Real )
(declare-fun X5 () Real )
(declare-fun Y5 () Real )
(declare-fun Z () Real )
(declare-fun k () Real )
(assert (let
(( $goal (>= Z k) ))
(let
((
$phi ( and 
( or ( <= ( + X0 80 ) X1 )  ( <= ( + X1 67 ) X0 )  ( <= ( + Y0 12 ) Y1 )  ( <= ( + Y1 21 ) Y0 )  )
( or ( <= ( + X0 80 ) X2 )  ( <= ( + X2 86 ) X0 )  ( <= ( + Y0 12 ) Y2 )  ( <= ( + Y2 53 ) Y0 )  )
( or ( <= ( + X0 80 ) X3 )  ( <= ( + X3 18 ) X0 )  ( <= ( + Y0 12 ) Y3 )  ( <= ( + Y3 24 ) Y0 )  )
( or ( <= ( + X0 80 ) X4 )  ( <= ( + X4 86 ) X0 )  ( <= ( + Y0 12 ) Y4 )  ( <= ( + Y4 64 ) Y0 )  )
( or ( <= ( + X0 80 ) X5 )  ( <= ( + X5 75 ) X0 )  ( <= ( + Y0 12 ) Y5 )  ( <= ( + Y5 61 ) Y0 )  )
( or ( <= ( + X1 67 ) X2 )  ( <= ( + X2 86 ) X1 )  ( <= ( + Y1 21 ) Y2 )  ( <= ( + Y2 53 ) Y1 )  )
( or ( <= ( + X1 67 ) X3 )  ( <= ( + X3 18 ) X1 )  ( <= ( + Y1 21 ) Y3 )  ( <= ( + Y3 24 ) Y1 )  )
( or ( <= ( + X1 67 ) X4 )  ( <= ( + X4 86 ) X1 )  ( <= ( + Y1 21 ) Y4 )  ( <= ( + Y4 64 ) Y1 )  )
( or ( <= ( + X1 67 ) X5 )  ( <= ( + X5 75 ) X1 )  ( <= ( + Y1 21 ) Y5 )  ( <= ( + Y5 61 ) Y1 )  )
( or ( <= ( + X2 86 ) X3 )  ( <= ( + X3 18 ) X2 )  ( <= ( + Y2 53 ) Y3 )  ( <= ( + Y3 24 ) Y2 )  )
( or ( <= ( + X2 86 ) X4 )  ( <= ( + X4 86 ) X2 )  ( <= ( + Y2 53 ) Y4 )  ( <= ( + Y4 64 ) Y2 )  )
( or ( <= ( + X2 86 ) X5 )  ( <= ( + X5 75 ) X2 )  ( <= ( + Y2 53 ) Y5 )  ( <= ( + Y5 61 ) Y2 )  )
( or ( <= ( + X3 18 ) X4 )  ( <= ( + X4 86 ) X3 )  ( <= ( + Y3 24 ) Y4 )  ( <= ( + Y4 64 ) Y3 )  )
( or ( <= ( + X3 18 ) X5 )  ( <= ( + X5 75 ) X3 )  ( <= ( + Y3 24 ) Y5 )  ( <= ( + Y5 61 ) Y3 )  )
( or ( <= ( + X4 86 ) X5 )  ( <= ( + X5 75 ) X4 )  ( <= ( + Y4 64 ) Y5 )  ( <= ( + Y5 61 ) Y4 )  )
( >= X0 0)
( <= ( + X0 80) Z)
( >= Y0 0)
( <= ( + Y0 12 ) 122)
( >= X1 0)
( <= ( + X1 67) Z)
( >= Y1 0)
( <= ( + Y1 21 ) 122)
( >= X2 0)
( <= ( + X2 86) Z)
( >= Y2 0)
( <= ( + Y2 53 ) 122)
( >= X3 0)
( <= ( + X3 18) Z)
( >= Y3 0)
( <= ( + Y3 24 ) 122)
( >= X4 0)
( <= ( + X4 86) Z)
( >= Y4 0)
( <= ( + Y4 64 ) 122)
( >= X5 0)
( <= ( + X5 75) Z)
( >= Y5 0)
( <= ( + Y5 61 ) 122)
) )
)(=> $phi $goal))))